
Gurobi 13.0.1 (linux64) logging started Tue Apr  7 12:58:26 2026

Set parameter LogFile to value "logs_sparse/50B_3F_robust_gamma_0d05_theta_0d05199999999999999_2026-04-07_12h58m20s.log"
Set parameter MIPGap to value 0.005
Set parameter OptimalityTol to value 0.005
Gurobi Optimizer version 13.0.1 build v13.0.1rc0 (linux64 - "Linux Mint 22")

CPU model: 12th Gen Intel(R) Core(TM) i7-12700, instruction set [SSE2|AVX|AVX2]
Thread count: 20 physical cores, 20 logical processors, using up to 20 threads

Non-default parameters:
TimeLimit  3600
SoftMemLimit  12
MIPGap  0.005
OptimalityTol  0.005

Optimize a model with 30471 rows, 390571 columns and 1204034 nonzeros (Max)
Model fingerprint: 0xc1121fd0
Model has 367561 linear objective coefficients
Variable types: 8071 continuous, 382500 integer (382500 binary)
Coefficient statistics:
  Matrix range     [3e-05, 1e+05]
  Objective range  [1e+00, 3e+03]
  Bounds range     [1e+00, 1e+05]
  RHS range        [8e-03, 1e+05]

Presolve removed 15658 rows and 282248 columns
Presolve time: 0.63s
Presolved: 14813 rows, 108323 columns, 345804 nonzeros
Variable types: 3869 continuous, 104454 integer (104454 binary)
Found heuristic solution: objective -3.88752e+08
Deterministic concurrent LP optimizer: primal and dual simplex
Showing primal log only...

Concurrent spin time: 0.97s (can be avoided by choosing Method=3)

Solved with dual simplex

Root relaxation: objective 1.296485e+08, 12045 iterations, 3.21 seconds (5.05 work units)

    Nodes    |    Current Node    |     Objective Bounds      |     Work
 Expl Unexpl |  Obj  Depth IntInf | Incumbent    BestBd   Gap | It/Node Time

     0     0 1.2965e+08    0 3504 -3.888e+08 1.2965e+08   133%     -    4s
H    0     0                    -1.87020e+08 1.2965e+08   169%     -    4s
H    0     0                    -6.99587e+07 1.2965e+08   285%     -    4s
H    0     0                    -5.97737e+07 1.2965e+08   317%     -    5s
H    0     0                    -1.63290e+07 1.2965e+08   894%     -    6s
H    0     0                    -1.60344e+07 1.2965e+08   909%     -    7s
H    0     0                    -6190664.128 1.2965e+08  2194%     -    7s
H    0     0                    -2134369.175 1.2965e+08  6174%     -    7s
H    0     0                    3101154.7068 1.2965e+08  4081%     -    8s
H    0     0                    3103330.0010 1.2965e+08  4078%     -    9s
H    0     0                    3104930.3045 1.2965e+08  4076%     -    9s
H    0     0                    2.293197e+07 1.2965e+08   465%     -   11s
H    0     0                    2.566824e+07 1.2965e+08   405%     -   11s
H    0     0                    2.704006e+07 1.2965e+08   379%     -   12s
H    0     0                    2.882556e+07 1.2965e+08   350%     -   13s
H    0     0                    7.854644e+07 1.2965e+08  65.1%     -   13s
H    0     0                    1.000110e+08 1.2965e+08  29.6%     -   13s
H    0     0                    1.000449e+08 1.2965e+08  29.6%     -   14s
H    0     0                    1.003928e+08 1.2965e+08  29.1%     -   14s
H    0     0                    1.004428e+08 1.2965e+08  29.1%     -   14s
H    0     0                    1.004864e+08 1.2965e+08  29.0%     -   14s
H    0     0                    1.005132e+08 1.2965e+08  29.0%     -   14s
H    0     0                    1.007221e+08 1.2965e+08  28.7%     -   14s
H    0     0                    1.023025e+08 1.2965e+08  26.7%     -   15s
H    0     0                    1.025264e+08 1.2965e+08  26.5%     -   15s
H    0     0                    1.031613e+08 1.2965e+08  25.7%     -   15s
H    0     0                    1.031634e+08 1.2965e+08  25.7%     -   15s
H    0     0                    1.035114e+08 1.2965e+08  25.3%     -   15s
H    0     0                    1.035117e+08 1.2965e+08  25.3%     -   15s
     0     0 1.2965e+08    0 3679 1.0351e+08 1.2965e+08  25.2%     -   71s
H    0     0                    1.035137e+08 1.2965e+08  25.2%     -   89s
H    0     0                    1.142209e+08 1.2965e+08  13.5%     -  108s
H    0     0                    1.185044e+08 1.2965e+08  9.40%     -  108s
H    0     0                    1.187199e+08 1.2965e+08  9.20%     -  108s
H    0     0                    1.191796e+08 1.2965e+08  8.78%     -  133s
H    0     0                    1.226193e+08 1.2965e+08  5.73%     -  133s
H    0     0                    1.226870e+08 1.2965e+08  5.67%     -  133s
H    0     0                    1.226894e+08 1.2965e+08  5.67%     -  133s
H    0     0                    1.228115e+08 1.2965e+08  5.56%     -  139s
     0     0 1.2965e+08    0 4121 1.2281e+08 1.2965e+08  5.56%     -  140s
H    0     0                    1.229933e+08 1.2965e+08  5.41%     -  142s
H    0     0                    1.236261e+08 1.2965e+08  4.87%     -  149s
H    0     0                    1.237847e+08 1.2965e+08  4.73%     -  149s
H    0     0                    1.240661e+08 1.2965e+08  4.50%     -  149s
H    0     0                    1.244031e+08 1.2965e+08  4.21%     -  150s
H    0     0                    1.245386e+08 1.2965e+08  4.10%     -  150s
H    0     0                    1.245579e+08 1.2965e+08  4.08%     -  150s
H    0     0                    1.247014e+08 1.2965e+08  3.96%     -  152s
H    0     0                    1.247672e+08 1.2965e+08  3.91%     -  152s
H    0     0                    1.251224e+08 1.2965e+08  3.61%     -  153s
H    0     0                    1.251568e+08 1.2965e+08  3.59%     -  153s
H    0     0                    1.252070e+08 1.2965e+08  3.54%     -  153s
H    0     0                    1.252087e+08 1.2965e+08  3.54%     -  153s
H    0     0                    1.252625e+08 1.2965e+08  3.50%     -  154s
H    0     0                    1.254367e+08 1.2965e+08  3.35%     -  158s
     0     0 1.2965e+08    0 4434 1.2544e+08 1.2965e+08  3.35%     -  168s
     0     0 1.2965e+08    0 3972 1.2544e+08 1.2965e+08  3.35%     -  173s
     0     0 1.2965e+08    0 4244 1.2544e+08 1.2965e+08  3.35%     -  188s
     0     0 1.2965e+08    0 4244 1.2544e+08 1.2965e+08  3.35%     -  189s
     0     0 1.2965e+08    0 4099 1.2544e+08 1.2965e+08  3.35%     -  189s
H    0     0                    1.254379e+08 1.2965e+08  3.35%     -  210s
H    0     0                    1.254401e+08 1.2965e+08  3.35%     -  212s
     0     2 1.2965e+08    0 4099 1.2544e+08 1.2965e+08  3.35%     -  217s
     1     4 1.2965e+08    1 4383 1.2544e+08 1.2965e+08  3.35%  4158  233s
     3     8 1.2965e+08    2 4351 1.2544e+08 1.2965e+08  3.35% 17858  258s
     7    16 1.2965e+08    3 4151 1.2544e+08 1.2965e+08  3.35% 20801  276s
    15    24 1.2965e+08    4 3638 1.2544e+08 1.2965e+08  3.35% 39444  833s
H   23    36                    1.254581e+08 1.2965e+08  3.34% 141528 1030s
H   25    36                    1.254627e+08 1.2965e+08  3.33% 131391 1030s
    35    56 1.2964e+08    6 3172 1.2546e+08 1.2965e+08  3.33% 122328 1148s
H   51    56                    1.257615e+08 1.2965e+08  3.09% 88270 1148s
H   55   132                    1.262329e+08 1.2965e+08  2.70% 82358 1491s
H   67   132                    1.262597e+08 1.2965e+08  2.68% 69423 1491s
H   79   132                    1.269642e+08 1.2965e+08  2.11% 60698 1491s
H  131   204                    1.269658e+08 1.2965e+08  2.11% 40361 1869s
H  132   204                    1.269700e+08 1.2965e+08  2.11% 40080 1869s
H  133   204                    1.269700e+08 1.2965e+08  2.11% 39896 1869s
H  137   204                    1.269792e+08 1.2965e+08  2.10% 39089 1869s
H  152   204                    1.269876e+08 1.2965e+08  2.09% 36158 1869s
H  174   204                    1.270413e+08 1.2965e+08  2.05% 33169 1869s
   203  1131 1.2964e+08   11 3135 1.2704e+08 1.2965e+08  2.05% 30047 3084s
H  518  1131                    1.272440e+08 1.2965e+08  1.89% 18029 3084s
H  783  1131                    1.277579e+08 1.2965e+08  1.48% 15478 3084s
H 1130  1605                    1.278276e+08 1.2965e+08  1.42% 13100 3600s
H 1212  1605                    1.278327e+08 1.2965e+08  1.42% 12828 3600s
H 1505  1605                    1.278329e+08 1.2965e+08  1.42% 11702 3600s

Cutting planes:
  Gomory: 10
  Implied bound: 34
  MIR: 10
  Flow cover: 82
  RLT: 2442
  Relax-and-lift: 40

Explored 1604 nodes (18483050 simplex iterations) in 3600.09 seconds (3490.37 work units)
Thread count was 20 (of 20 available processors)

Solution count 10: 1.27833e+08 1.27833e+08 1.27828e+08 ... 1.2697e+08

Time limit reached
Best objective 1.278329425450e+08, best bound 1.296450422929e+08, gap 1.4176%
